NAME 
ROWS
 N  OBJ
 L  R0      
 L  R1      
 L  R2      
 E  R3      
 E  R4      
 E  R5      
 E  R6      
 E  R7      
 E  R8      
 E  R9      
 E  R10     
 E  R11     
 E  R12     
 E  R13     
 E  R14     
 E  R15     
 E  R16     
 E  R17     
 E  R18     
 E  R19     
 E  R20     
 E  R21     
 E  R22     
 E  R23     
 E  R24     
 E  R25     
 E  R26     
 E  R27     
COLUMNS
    MARKER    'MARKER'                 'INTORG'
    I0(9)     OBJ       53
    I0(9)     R1        -78
    I0(9)     R2        -126
    I0(9)     R4        14
    I0(9)     R5        13
    I0(9)     R8        2
    I0(9)     R9        12
    I0(9)     R10       14
    I0(9)     R12       7
    I0(9)     R27       1
    I1(11)    OBJ       -19
    I1(11)    R0        89
    I1(11)    R1        -107
    I1(11)    R2        115
    I1(11)    R4        15
    I1(11)    R5        10
    I1(11)    R6        14
    I1(11)    R8        17
    I1(11)    R10       17
    I1(11)    R11       15
    I1(11)    R12       13
    I1(11)    R27       1
    I2(12)    OBJ       -34
    I2(12)    R0        42
    I2(12)    R1        -40
    I2(12)    R2        188
    I2(12)    R3        7
    I2(12)    R5        5
    I2(12)    R6        18
    I2(12)    R7        17
    I2(12)    R8        4
    I2(12)    R10       8
    I2(12)    R11       11
    I2(12)    R12       19
    I2(12)    R27       1
    I3(10)    OBJ       -158
    I3(10)    R0        -118
    I3(10)    R1        187
    I3(10)    R2        -13
    I3(10)    R4        11
    I3(10)    R6        18
    I3(10)    R8        8
    I3(10)    R9        5
    I3(10)    R10       4
    I3(10)    R12       -1
    I3(10)    R27       1
    I4(13)    OBJ       56
    I4(13)    R0        -61
    I4(13)    R1        71
    I4(13)    R2        158
    I4(13)    R3        12
    I4(13)    R4        12
    I4(13)    R5        -1
    I4(13)    R6        11
    I4(13)    R7        8
    I4(13)    R8        14
    I4(13)    R9        -1
    I4(13)    R10       19
    I4(13)    R11       13
    I4(13)    R27       1
    I5(12)    OBJ       19
    I5(12)    R0        68
    I5(12)    R1        199
    I5(12)    R2        -132
    I5(12)    R3        12
    I5(12)    R4        2
    I5(12)    R5        2
    I5(12)    R7        2
    I5(12)    R8        13
    I5(12)    R9        3
    I5(12)    R11       17
    I5(12)    R12       7
    I5(12)    R27       1
    I6(8)     OBJ       159
    I6(8)     R0        -150
    I6(8)     R1        -63
    I6(8)     R2        -96
    I6(8)     R3        2
    I6(8)     R6        1
    I6(8)     R8        15
    I6(8)     R10       4
    I6(8)     R27       1
    I7(13)    OBJ       -200
    I7(13)    R0        29
    I7(13)    R1        175
    I7(13)    R2        -192
    I7(13)    R3        10
    I7(13)    R4        3
    I7(13)    R5        19
    I7(13)    R6        1
    I7(13)    R7        10
    I7(13)    R8        12
    I7(13)    R10       8
    I7(13)    R11       17
    I7(13)    R12       5
    I7(13)    R27       1
    I8(13)    OBJ       7
    I8(13)    R0        -160
    I8(13)    R1        24
    I8(13)    R2        108
    I8(13)    R3        13
    I8(13)    R4        13
    I8(13)    R5        11
    I8(13)    R6        -1
    I8(13)    R7        12
    I8(13)    R9        5
    I8(13)    R10       5
    I8(13)    R11       -1
    I8(13)    R12       1
    I8(13)    R27       1
    I9(10)    OBJ       154
    I9(10)    R0        147
    I9(10)    R1        -132
    I9(10)    R2        -1
    I9(10)    R5        4
    I9(10)    R6        3
    I9(10)    R7        3
    I9(10)    R8        3
    I9(10)    R9        16
    I9(10)    R12       4
    I9(10)    R27       1
    MARKER    'MARKER'                 'INTEND'
    C10(21)   OBJ       -7
    C10(21)   R0        -9
    C10(21)   R1        -5
    C10(21)   R2        -3
    C10(21)   R3        12
    C10(21)   R5        15
    C10(21)   R6        4
    C10(21)   R7        8
    C10(21)   R8        4
    C10(21)   R9        7
    C10(21)   R10       14
    C10(21)   R11       19
    C10(21)   R12       16
    C10(21)   R14       3
    C10(21)   R15       15
    C10(21)   R16       3
    C10(21)   R17       9
    C10(21)   R18       1
    C10(21)   R19       6
    C10(21)   R20       5
    C10(21)   R23       3
    C10(21)   R24       3
    C11(20)   OBJ       4
    C11(20)   R0        -1
    C11(20)   R1        1
    C11(20)   R2        9
    C11(20)   R3        5
    C11(20)   R4        1
    C11(20)   R6        2
    C11(20)   R7        5
    C11(20)   R9        3
    C11(20)   R12       4
    C11(20)   R13       12
    C11(20)   R17       12
    C11(20)   R18       13
    C11(20)   R19       7
    C11(20)   R20       11
    C11(20)   R21       -1
    C11(20)   R22       14
    C11(20)   R23       4
    C11(20)   R24       3
    C11(20)   R25       5
    C11(20)   R26       17
    C12(15)   OBJ       5
    C12(15)   R1        -8
    C12(15)   R2        -1
    C12(15)   R3        7
    C12(15)   R8        8
    C12(15)   R12       16
    C12(15)   R13       13
    C12(15)   R14       16
    C12(15)   R16       3
    C12(15)   R18       2
    C12(15)   R19       1
    C12(15)   R20       9
    C12(15)   R22       8
    C12(15)   R23       11
    C12(15)   R25       7
    C12(15)   R26       6
    C13(16)   OBJ       5
    C13(16)   R0        -3
    C13(16)   R1        -3
    C13(16)   R2        6
    C13(16)   R3        18
    C13(16)   R5        6
    C13(16)   R8        17
    C13(16)   R10       15
    C13(16)   R14       19
    C13(16)   R16       1
    C13(16)   R17       14
    C13(16)   R19       6
    C13(16)   R21       16
    C13(16)   R22       12
    C13(16)   R23       18
    C13(16)   R24       10
    C13(16)   R26       19
    C14(14)   OBJ       6
    C14(14)   R0        -8
    C14(14)   R1        -7
    C14(14)   R2        -5
    C14(14)   R3        6
    C14(14)   R4        13
    C14(14)   R5        11
    C14(14)   R6        4
    C14(14)   R11       6
    C14(14)   R14       14
    C14(14)   R15       4
    C14(14)   R16       19
    C14(14)   R20       13
    C14(14)   R22       7
    C14(14)   R23       17
    C15(19)   OBJ       3
    C15(19)   R0        -8
    C15(19)   R1        -2
    C15(19)   R3        1
    C15(19)   R4        19
    C15(19)   R9        19
    C15(19)   R10       13
    C15(19)   R11       16
    C15(19)   R12       -1
    C15(19)   R14       19
    C15(19)   R17       19
    C15(19)   R18       10
    C15(19)   R19       15
    C15(19)   R20       5
    C15(19)   R21       17
    C15(19)   R22       -1
    C15(19)   R23       6
    C15(19)   R24       14
    C15(19)   R25       5
    C15(19)   R26       2
    C16(17)   OBJ       -4
    C16(17)   R0        5
    C16(17)   R1        1
    C16(17)   R2        9
    C16(17)   R3        9
    C16(17)   R4        2
    C16(17)   R6        9
    C16(17)   R7        4
    C16(17)   R9        9
    C16(17)   R12       10
    C16(17)   R13       6
    C16(17)   R15       3
    C16(17)   R18       18
    C16(17)   R21       4
    C16(17)   R22       10
    C16(17)   R23       17
    C16(17)   R24       7
    C16(17)   R25       -1
    C17(18)   OBJ       -6
    C17(18)   R0        -6
    C17(18)   R1        7
    C17(18)   R2        9
    C17(18)   R4        1
    C17(18)   R5        10
    C17(18)   R10       4
    C17(18)   R11       3
    C17(18)   R13       19
    C17(18)   R14       14
    C17(18)   R15       16
    C17(18)   R18       10
    C17(18)   R19       4
    C17(18)   R20       11
    C17(18)   R21       9
    C17(18)   R22       5
    C17(18)   R23       10
    C17(18)   R24       4
    C17(18)   R26       17
    C18(22)   OBJ       4
    C18(22)   R0        9
    C18(22)   R1        -7
    C18(22)   R2        9
    C18(22)   R3        19
    C18(22)   R4        19
    C18(22)   R5        15
    C18(22)   R6        10
    C18(22)   R7        3
    C18(22)   R8        4
    C18(22)   R9        3
    C18(22)   R10       12
    C18(22)   R11       6
    C18(22)   R13       17
    C18(22)   R14       4
    C18(22)   R15       9
    C18(22)   R16       11
    C18(22)   R19       7
    C18(22)   R20       1
    C18(22)   R21       10
    C18(22)   R22       9
    C18(22)   R24       7
    C18(22)   R26       10
    C19(17)   R0        4
    C19(17)   R1        -3
    C19(17)   R4        8
    C19(17)   R5        16
    C19(17)   R7        5
    C19(17)   R9        10
    C19(17)   R10       9
    C19(17)   R12       16
    C19(17)   R13       4
    C19(17)   R15       5
    C19(17)   R16       2
    C19(17)   R21       5
    C19(17)   R22       2
    C19(17)   R23       13
    C19(17)   R24       -1
    C19(17)   R25       6
    C19(17)   R26       16
    C20(21)   OBJ       -6
    C20(21)   R0        2
    C20(21)   R1        6
    C20(21)   R2        -7
    C20(21)   R5        16
    C20(21)   R6        3
    C20(21)   R8        5
    C20(21)   R9        10
    C20(21)   R10       8
    C20(21)   R11       5
    C20(21)   R12       8
    C20(21)   R13       17
    C20(21)   R14       16
    C20(21)   R15       11
    C20(21)   R17       9
    C20(21)   R19       4
    C20(21)   R20       19
    C20(21)   R21       2
    C20(21)   R22       13
    C20(21)   R23       2
    C20(21)   R24       10
    C20(21)   R26       16
    C21(18)   OBJ       9
    C21(18)   R0        -2
    C21(18)   R1        -8
    C21(18)   R2        6
    C21(18)   R4        18
    C21(18)   R5        7
    C21(18)   R6        19
    C21(18)   R7        4
    C21(18)   R8        10
    C21(18)   R9        7
    C21(18)   R10       4
    C21(18)   R13       12
    C21(18)   R14       12
    C21(18)   R15       14
    C21(18)   R19       2
    C21(18)   R21       13
    C21(18)   R22       14
    C21(18)   R23       18
    C21(18)   R25       6
    C22(17)   OBJ       7
    C22(17)   R0        5
    C22(17)   R1        -3
    C22(17)   R2        3
    C22(17)   R4        15
    C22(17)   R5        8
    C22(17)   R6        13
    C22(17)   R7        10
    C22(17)   R8        19
    C22(17)   R9        16
    C22(17)   R16       18
    C22(17)   R18       19
    C22(17)   R19       8
    C22(17)   R20       12
    C22(17)   R22       11
    C22(17)   R23       18
    C22(17)   R24       13
    C22(17)   R26       17
    C23(20)   OBJ       8
    C23(20)   R0        -8
    C23(20)   R1        -6
    C23(20)   R2        8
    C23(20)   R3        7
    C23(20)   R6        -1
    C23(20)   R8        11
    C23(20)   R9        14
    C23(20)   R11       16
    C23(20)   R12       6
    C23(20)   R13       9
    C23(20)   R14       19
    C23(20)   R16       15
    C23(20)   R17       15
    C23(20)   R18       -1
    C23(20)   R19       14
    C23(20)   R20       3
    C23(20)   R22       9
    C23(20)   R23       16
    C23(20)   R24       11
    C23(20)   R26       8
    C24(15)   OBJ       -5
    C24(15)   R0        -8
    C24(15)   R3        11
    C24(15)   R4        11
    C24(15)   R5        2
    C24(15)   R6        3
    C24(15)   R7        19
    C24(15)   R8        19
    C24(15)   R9        18
    C24(15)   R12       8
    C24(15)   R13       16
    C24(15)   R15       10
    C24(15)   R16       4
    C24(15)   R17       1
    C24(15)   R19       14
    C24(15)   R26       7
    C25(1)    R3        1
    C26(1)    R4        1
    C27(1)    R5        1
    C28(1)    R6        1
    C29(1)    R7        1
    C30(1)    R8        1
    C31(1)    R9        1
    C32(1)    R10       1
    C33(1)    R11       1
    C34(1)    R12       1
    C35(1)    R13       1
    C36(1)    R14       1
    C37(1)    R15       1
    C38(1)    R16       1
    C39(1)    R17       1
    C40(1)    R18       1
    C41(1)    R19       1
    C42(1)    R20       1
    C43(1)    R21       1
    C44(1)    R22       1
    C45(1)    R23       1
    C46(1)    R24       1
    C47(1)    R25       1
    C48(1)    R26       1
    C49(1)    R27       1
RHS
    RHS1      R0        -7.3925198836657444e+01
    RHS1      R1        5.5855531813865139e+02
    RHS1      R2        -3.4935069444444480e+02
    RHS1      R3        51
    RHS1      R4        86
    RHS1      R5        77
    RHS1      R6        98
    RHS1      R7        82
    RHS1      R8        95
    RHS1      R9        67
    RHS1      R10       83
    RHS1      R11       53
    RHS1      R12       99
    RHS1      R13       98
    RHS1      R14       72
    RHS1      R15       69
    RHS1      R16       75
    RHS1      R17       76
    RHS1      R18       74
    RHS1      R19       50
    RHS1      R20       87
    RHS1      R21       87
    RHS1      R22       50
    RHS1      R23       83
    RHS1      R24       75
    RHS1      R25       68
    RHS1      R26       55
    RHS1      R27       3
BOUNDS
 UP BND1      I0(9)     2
 UP BND1      I1(11)    2
 UP BND1      I2(12)    2
 UP BND1      I3(10)    2
 UP BND1      I4(13)    2
 UP BND1      I5(12)    2
 UP BND1      I6(8)     2
 UP BND1      I7(13)    2
 UP BND1      I8(13)    2
 UP BND1      I9(10)    2
ENDATA
